k = 40;
b = 20;
AtomicConstraints =  [|
7, 16|
	7, 17|
	7, 18|
	8, 16|
	8, 17|
	8, 18|
	8, 19|
	9, 17|
	9, 18|
	9, 19|
	9, 20|
	10, 1|
	10, 18|
	10, 19|
	10, 20|
	11, 1|
	11, 2|
	11, 19|
	11, 20|
	12, 1|
	12, 2|
	12, 3|
	12, 20|
	13, 1|
	13, 2|
	13, 3|
	13, 4|
	14, 2|
	14, 3|
	14, 4|
	14, 5|
	15, 3|
	15, 4|
	15, 5|
	15, 6|
	23, 21|
	23, 22|
	23, 27|
	23, 28|
	23, 29|
	24, 21|
	24, 22|
	24, 27|
	24, 28|
	24, 29|
	30, 22|
	30, 27|
	30, 28|
	30, 29|
	31, 27|
	31, 28|
	31, 29|
	32, 28|
	32, 29|
	25, 21|
	25, 22|
	25, 27|
	25, 28|
	25, 29|
	25, 23|
	25, 24|
	25, 30|
	25, 31|
	25, 32|
	26, 22|
	26, 27|
	26, 28|
	26, 29|
	26, 23|
	26, 24|
	26, 30|
	26, 31|
	26, 32|
	33, 27|
	33, 28|
	33, 29|
	33, 24|
	33, 30|
	33, 31|
	33, 32|
	34, 28|
	34, 29|
	34, 30|
	34, 31|
	34, 32|
	35, 29|
	35, 31|
	35, 32|
	36, 21|
	36, 22|
	36, 27|
	36, 28|
	36, 29|
	36, 23|
	36, 24|
	36, 30|
	36, 31|
	36, 32|
	36, 25|
	36, 26|
	36, 33|
	36, 34|
	36, 35|
	37, 22|
	37, 27|
	37, 28|
	37, 29|
	37, 24|
	37, 30|
	37, 31|
	37, 32|
	37, 25|
	37, 26|
	37, 33|
	37, 34|
	37, 35|
	38, 28|
	38, 29|
	38, 30|
	38, 31|
	38, 32|
	38, 26|
	38, 33|
	38, 34|
	38, 35|
	39, 29|
	39, 31|
	39, 32|
	39, 33|
	39, 34|
	39, 35|
	40, 32|
	40, 34|
	40, 35|];
DisjunctiveConstraints =  [|1, 20, 1, 2|
	2, 1, 2, 3|
	3, 2, 3, 4|
	4, 3, 4, 5|
	5, 4, 5, 6|
	8, 7, 8, 9|
	9, 8, 9, 10|
	10, 9, 10, 11|
	11, 10, 11, 12|
	12, 11, 12, 13|
	13, 12, 13, 14|
	14, 13, 14, 15|
	17, 16, 17, 18|
	18, 17, 18, 19|
	19, 18, 19, 20|
	20, 19, 20, 1|
	22, 21, 22, 27|
	27, 22, 27, 28|
	28, 27, 28, 29|
	23, 1, 23, 21|
	23, 2, 23, 22|
	24, 2, 24, 22|
	24, 21, 1, 24|
	24, 27, 24, 7|
	24, 23, 24, 30|
	30, 22, 2, 30|
	30, 27, 30, 7|
	30, 28, 30, 8|
	30, 24, 30, 31|
	31, 22, 2, 31|
	31, 27, 7, 31|
	31, 28, 31, 8|
	31, 29, 31, 9|
	31, 30, 31, 32|
	32, 28, 8, 32|
	32, 29, 32, 9|
	25, 2, 25, 22|
	25, 3, 25, 23|
	25, 4, 25, 24|
	26, 4, 26, 24|
	26, 10, 26, 30|
	26, 27, 26, 7|
	26, 23, 3, 26|
	26, 25, 26, 33|
	33, 10, 33, 30|
	33, 11, 33, 31|
	33, 21, 1, 33|
	33, 28, 33, 8|
	33, 23, 3, 33|
	33, 24, 4, 33|
	33, 26, 33, 34|
	34, 11, 34, 31|
	34, 12, 34, 32|
	34, 21, 1, 34|
	34, 22, 2, 34|
	34, 29, 34, 9|
	34, 24, 4, 34|
	34, 30, 10, 34|
	34, 33, 34, 35|
	35, 12, 35, 32|
	35, 22, 2, 35|
	35, 27, 7, 35|
	35, 31, 11, 35|
	36, 2, 36, 22|
	36, 4, 36, 24|
	36, 5, 36, 25|
	36, 6, 36, 26|
	36, 27, 36, 7|
	37, 6, 37, 26|
	37, 10, 37, 30|
	37, 13, 37, 33|
	37, 28, 37, 8|
	37, 25, 5, 37|
	37, 36, 37, 38|
	38, 11, 38, 31|
	38, 13, 38, 33|
	38, 14, 38, 34|
	38, 29, 38, 9|
	38, 25, 5, 38|
	38, 26, 6, 38|
	38, 37, 38, 39|
	39, 12, 39, 32|
	39, 14, 39, 34|
	39, 15, 39, 35|
	39, 29, 39, 9|
	39, 23, 3, 39|
	39, 26, 6, 39|
	39, 33, 13, 39|
	39, 38, 39, 40|
	40, 15, 40, 35|
	40, 21, 1, 40|
	40, 24, 4, 40|
	40, 30, 10, 40|
	40, 33, 13, 40|
	40, 34, 14, 40|];
SoftAtomicConstraints =  [|
20, 1|
1, 2|
2, 3|
3, 4|
4, 5|
5, 6|
7, 8|
8, 9|
9, 10|
10, 11|
11, 12|
12, 13|
13, 14|
14, 15|
16, 17|
17, 18|
18, 19|
19, 20|
21, 22|
23, 24|
25, 26|
22, 27|
27, 28|
28, 29|
24, 30|
30, 31|
31, 32|
26, 33|
33, 34|
34, 35|
36, 37|
37, 38|
38, 39|
39, 40|];
DirectSuccessors =  [];
